c optimum value = 38745
p wcnf 60 695
1 1 0
1 2 0
1 3 0
1 4 0
1 5 0
1 6 0
1 7 0
1 8 0
1 9 0
1 10 0
1 11 0
1 12 0
1 13 0
1 14 0
1 15 0
1 16 0
1 17 0
1 18 0
1 19 0
1 20 0
1 21 0
1 22 0
1 23 0
1 24 0
1 25 0
1 26 0
1 27 0
1 28 0
1 29 0
1 30 0
1 31 0
1 32 0
1 33 0
1 34 0
1 35 0
1 36 0
1 37 0
1 38 0
1 39 0
1 40 0
1 41 0
1 42 0
1 43 0
1 44 0
1 45 0
1 46 0
1 47 0
1 48 0
1 49 0
1 50 0
1 51 0
1 52 0
1 53 0
1 54 0
1 55 0
1 56 0
1 57 0
1 58 0
1 59 0
1 60 0
61 -1 -2 0
61 -1 -3 0
61 -1 -4 0
61 -1 -5 0
61 -1 -6 0
61 -2 -3 0
61 -2 -4 0
61 -2 -5 0
61 -2 -6 0
61 -3 -4 0
61 -3 -5 0
61 -3 -6 0
61 -4 -5 0
61 -4 -6 0
61 -5 -6 0
61 -7 -8 0
61 -7 -9 0
61 -7 -10 0
61 -7 -11 0
61 -7 -12 0
61 -8 -9 0
61 -8 -10 0
61 -8 -11 0
61 -8 -12 0
61 -9 -10 0
61 -9 -11 0
61 -9 -12 0
61 -10 -11 0
61 -10 -12 0
61 -11 -12 0
61 -13 -14 0
61 -13 -15 0
61 -13 -16 0
61 -13 -17 0
61 -13 -18 0
61 -14 -15 0
61 -14 -16 0
61 -14 -17 0
61 -14 -18 0
61 -15 -16 0
61 -15 -17 0
61 -15 -18 0
61 -16 -17 0
61 -16 -18 0
61 -17 -18 0
61 -19 -20 0
61 -19 -21 0
61 -19 -22 0
61 -19 -23 0
61 -19 -24 0
61 -20 -21 0
61 -20 -22 0
61 -20 -23 0
61 -20 -24 0
61 -21 -22 0
61 -21 -23 0
61 -21 -24 0
61 -22 -23 0
61 -22 -24 0
61 -23 -24 0
61 -25 -26 0
61 -25 -27 0
61 -25 -28 0
61 -25 -29 0
61 -25 -30 0
61 -26 -27 0
61 -26 -28 0
61 -26 -29 0
61 -26 -30 0
61 -27 -28 0
61 -27 -29 0
61 -27 -30 0
61 -28 -29 0
61 -28 -30 0
61 -29 -30 0
61 -31 -32 0
61 -31 -33 0
61 -31 -34 0
61 -31 -35 0
61 -31 -36 0
61 -32 -33 0
61 -32 -34 0
61 -32 -35 0
61 -32 -36 0
61 -33 -34 0
61 -33 -35 0
61 -33 -36 0
61 -34 -35 0
61 -34 -36 0
61 -35 -36 0
61 -37 -38 0
61 -37 -39 0
61 -37 -40 0
61 -37 -41 0
61 -37 -42 0
61 -38 -39 0
61 -38 -40 0
61 -38 -41 0
61 -38 -42 0
61 -39 -40 0
61 -39 -41 0
61 -39 -42 0
61 -40 -41 0
61 -40 -42 0
61 -41 -42 0
61 -43 -44 0
61 -43 -45 0
61 -43 -46 0
61 -43 -47 0
61 -43 -48 0
61 -44 -45 0
61 -44 -46 0
61 -44 -47 0
61 -44 -48 0
61 -45 -46 0
61 -45 -47 0
61 -45 -48 0
61 -46 -47 0
61 -46 -48 0
61 -47 -48 0
61 -49 -50 0
61 -49 -51 0
61 -49 -52 0
61 -49 -53 0
61 -49 -54 0
61 -50 -51 0
61 -50 -52 0
61 -50 -53 0
61 -50 -54 0
61 -51 -52 0
61 -51 -53 0
61 -51 -54 0
61 -52 -53 0
61 -52 -54 0
61 -53 -54 0
61 -55 -56 0
61 -55 -57 0
61 -55 -58 0
61 -55 -59 0
61 -55 -60 0
61 -56 -57 0
61 -56 -58 0
61 -56 -59 0
61 -56 -60 0
61 -57 -58 0
61 -57 -59 0
61 -57 -60 0
61 -58 -59 0
61 -58 -60 0
61 -59 -60 0
61 -32 -58  0
61 -34 -57  0
61 -36 -55  0
61 -34 -56  0
61 -32 -60  0
61 -36 -57  0
61 -33 -57  0
61 -32 -57  0
61 -33 -58  0
61 -4 -18  0
61 -5 -18  0
61 -6 -18  0
61 -6 -16  0
61 -4 -14  0
61 -6 -17  0
61 -5 -17  0
61 -2 -14  0
61 -3 -15  0
61 -18 -42  0
61 -16 -40  0
61 -18 -38  0
61 -17 -39  0
61 -17 -41  0
61 -16 -39  0
61 -15 -38  0
61 -14 -41  0
61 -18 -39  0
61 -22 -46  0
61 -24 -46  0
61 -19 -47  0
61 -24 -43  0
61 -23 -47  0
61 -19 -48  0
61 -22 -45  0
61 -20 -46  0
61 -21 -45  0
61 -30 -54  0
61 -30 -52  0
61 -25 -54  0
61 -26 -53  0
61 -26 -52  0
61 -26 -49  0
61 -28 -52  0
61 -28 -51  0
61 -30 -49  0
61 -10 -52  0
61 -11 -51  0
61 -9 -50  0
61 -12 -52  0
61 -8 -52  0
61 -8 -54  0
61 -10 -54  0
61 -12 -50  0
61 -7 -50  0
61 -2 -16  0
61 -4 -17  0
61 -2 -15  0
61 -3 -13  0
61 -26 -58  0
61 -26 -59  0
61 -29 -58  0
61 -28 -56  0
61 -30 -57  0
61 -30 -58  0
61 -25 -57  0
61 -29 -57  0
61 -28 -58  0
61 -23 -32  0
61 -24 -33  0
61 -19 -34  0
61 -19 -33  0
61 -23 -36  0
61 -22 -31  0
61 -23 -31  0
61 -19 -36  0
61 -24 -35  0
61 -33 -54  0
61 -32 -50  0
61 -34 -52  0
61 -36 -51  0
61 -32 -51  0
61 -34 -49  0
61 -35 -51  0
61 -32 -53  0
61 -31 -54  0
61 -29 -48  0
61 -26 -44  0
61 -25 -46  0
61 -30 -46  0
61 -30 -45  0
61 -28 -44  0
61 -29 -45  0
61 -27 -48  0
61 -26 -48  0
61 -2 -60  0
61 -6 -55  0
61 -5 -60  0
61 -4 -59  0
61 -1 -55  0
61 -4 -57  0
61 -1 -58  0
61 -4 -60  0
61 -5 -56  0
61 -16 -24  0
61 -15 -21  0
61 -15 -24  0
61 -17 -19  0
61 -16 -20  0
61 -17 -21  0
61 -17 -23  0
61 -14 -22  0
61 -14 -23  0
61 -2  -8  0
61 -5 -11  0
61 -4  -8  0
61 -1  -9  0
61 -4 -11  0
61 -3  -9  0
61 -2  -7  0
61 -3 -10  0
61 -4  -9  0
61 -6 -13  0
61 -3 -18  0
61 -5 -16  0
61 -1 -17  0
61 -8 -38  0
61 -9 -39  0
61 -11 -39  0
61 -9 -38  0
61 -12 -40  0
61 -8 -40  0
61 -11 -37  0
61 -8 -42  0
61 -11 -38  0
61 -36 -58  0
61 -33 -59  0
61 -36 -60  0
61 -34 -59  0
61 -15 -35  0
61 -16 -34  0
61 -13 -34  0
61 -16 -33  0
61 -18 -36  0
61 -17 -33  0
61 -15 -33  0
61 -13 -36  0
61 -13 -32  0
61 -16 -55  0
61 -16 -56  0
61 -18 -60  0
61 -14 -59  0
61 -15 -57  0
61 -16 -57  0
61 -13 -55  0
61 -17 -57  0
61 -17 -56  0
61 -15 -22  0
61 -13 -22  0
61 -16 -22  0
61 -13 -19  0
61 -18 -21  0
61 -14 -24  0
61 -13 -23  0
61 -18 -20  0
61 -31 -51  0
61 -32 -54  0
61 -35 -49  0
61 -31 -52  0
61 -35 -53  0
61 -35 -52  0
61 -23 -41  0
61 -23 -39  0
61 -22 -38  0
61 -21 -42  0
61 -21 -40  0
61 -24 -38  0
61 -22 -41  0
61 -23 -38  0
61 -19 -39  0
61 -33 -40  0
61 -35 -37  0
61 -34 -42  0
61 -31 -39  0
61 -31 -40  0
61 -35 -41  0
61 -35 -42  0
61 -34 -41  0
61 -32 -40  0
61 -12 -45  0
61 -7 -47  0
61 -11 -43  0
61 -12 -47  0
61 -8 -47  0
61 -8 -45  0
61 -11 -47  0
61 -7 -48  0
61 -9 -43  0
61 -11 -57  0
61 -7 -55  0
61 -7 -56  0
61 -7 -58  0
61 -8 -55  0
61 -11 -59  0
61 -8 -59  0
61 -11 -56  0
61 -10 -58  0
61 -46 -60  0
61 -48 -55  0
61 -44 -60  0
61 -48 -57  0
61 -46 -57  0
61 -48 -58  0
61 -43 -59  0
61 -44 -57  0
61 -46 -56  0
61 -27 -45  0
61 -28 -45  0
61 -28 -43  0
61 -29 -44  0
61 -29 -46  0
61 -27 -43  0
61 -25 -47  0
61 -30 -44  0
61 -28 -46  0
61 -5 -33  0
61 -3 -34  0
61 -6 -36  0
61 -3 -36  0
61 -3 -35  0
61 -5 -36  0
61 -2 -36  0
61 -2 -35  0
61 -4 -31  0
61 -45 -54  0
61 -45 -50  0
61 -45 -53  0
61 -48 -50  0
61 -46 -51  0
61 -44 -49  0
61 -46 -53  0
61 -43 -51  0
61 -45 -52  0
61 -16 -58  0
61 -18 -58  0
61 -15 -59  0
61 -17 -60  0
61 -14 -56  0
61 -13 -57  0
61 -14 -27  0
61 -16 -27  0
61 -13 -25  0
61 -16 -30  0
61 -18 -25  0
61 -13 -27  0
61 -15 -27  0
61 -14 -25  0
61 -14 -26  0
61 -3 -41  0
61 -5 -40  0
61 -4 -37  0
61 -4 -39  0
61 -4 -42  0
61 -6 -39  0
61 -3 -37  0
61 -4 -40  0
61 -5 -39  0
61 -52 -60  0
61 -49 -59  0
61 -49 -55  0
61 -51 -58  0
61 -53 -60  0
61 -54 -56  0
61 -52 -59  0
61 -50 -58  0
61 -51 -57  0
61 -33 -37  0
61 -36 -38  0
61 -36 -37  0
61 -33 -41  0
61 -32 -37  0
61 -36 -40  0
61 -34 -38  0
61 -2 -26  0
61 -3 -28  0
61 -6 -27  0
61 -1 -28  0
61 -5 -28  0
61 -6 -29  0
61 -2 -30  0
61 -2 -28  0
61 -6 -26  0
61 -47 -59  0
61 -43 -56  0
61 -43 -57  0
61 -44 -55  0
61 -48 -59  0
61 -43 -58  0
61 -45 -57  0
61 -10 -44  0
61 -7 -45  0
61 -9 -48  0
61 -10 -43  0
61 -11 -44  0
61 -10 -45  0
61 -12 -46  0
61 -7 -46  0
61 -24 -31  0
61 -22 -36  0
61 -21 -36  0
61 -20 -36  0
61 -42 -45  0
61 -38 -44  0
61 -41 -46  0
61 -39 -44  0
61 -37 -45  0
61 -37 -44  0
61 -39 -43  0
61 -40 -45  0
61 -42 -43  0
61 -5 -38  0
61 -2 -38  0
61 -6 -37  0
61 -1 -37  0
61 -5 -42  0
61 -25 -45  0
61 -30 -48  0
61 -29 -43  0
61 -39 -57  0
61 -37 -55  0
61 -40 -55  0
61 -41 -57  0
61 -42 -60  0
61 -37 -58  0
61 -41 -55  0
61 -37 -59  0
61 -37 -60  0
61 -33 -42  0
61 -31 -38  0
61 -32 -38  0
61 -32 -42  0
61 -3 -60  0
61 -6 -58  0
61 -2 -56  0
61 -1 -59  0
61 -6 -57  0
61 -2 -58  0
61 -5 -59  0
61 -4 -27  0
61 -4 -28  0
61 -3 -25  0
61 -5 -30  0
61 -2 -27  0
61 -10 -48  0
61 -10 -46  0
61 -9 -47  0
61 -8 -44  0
61 -11 -48  0
61 -43 -52  0
61 -48 -49  0
61 -47 -51  0
61 -43 -50  0
61 -1 -33  0
61 -2 -33  0
61 -1 -34  0
61 -5 -35  0
61 -5 -31  0
61 -17 -51  0
61 -14 -54  0
61 -13 -50  0
61 -18 -52  0
61 -13 -49  0
61 -15 -54  0
61 -13 -54  0
61 -18 -51  0
61 -17 -53  0
61 -12 -15  0
61 -11 -15  0
61 -11 -18  0
61 -12 -18  0
61 -8 -15  0
61 -11 -17  0
61 -9 -13  0
61 -8 -16  0
61 -8 -17  0
61 -4 -16  0
61 -6 -14  0
61 -3 -16  0
61 -2 -18  0
61 -31 -49  0
61 -34 -51  0
61 -31 -50  0
61 -36 -50  0
61 -13 -38  0
61 -14 -42  0
61 -18 -40  0
61 -16 -41  0
61 -14 -38  0
61 -15 -40  0
61 -13 -37  0
61 -2 -44  0
61 -2 -48  0
61 -5 -47  0
61 -4 -46  0
61 -1 -43  0
61 -3 -46  0
61 -5 -44  0
61 -4 -45  0
61 -2 -47  0
61 -17 -58  0
61 -15 -55  0
61 -14 -58  0
61 -14 -55  0
61 -14 -57  0
61 -13 -58  0
61 -9 -53  0
61 -8 -50  0
61 -9 -49  0
61 -11 -49  0
61 -11 -52  0
61 -8 -53  0
61 -7 -52  0
61 -12 -49  0
61 -1 -46  0
61 -1 -48  0
61 -1 -44  0
61 -3 -43  0
61 -3 -48  0
61 -1 -45  0
61 -5 -45  0
61 -10 -37  0
61 -12 -41  0
61 -10 -39  0
61 -9 -40  0
61 -8 -37  0
61 -2 -52  0
61 -4 -49  0
61 -3 -52  0
61 -1 -50  0
61 -2 -50  0
61 -6 -51  0
61 -5 -51  0
61 -5 -53  0
61 -6 -49  0
61 -20 -32  0
61 -23 -34  0
61 -19 -35  0
61 -21 -33  0
61 -20 -34  0
61 -21 -34  0
61 -19 -57  0
61 -21 -58  0
61 -20 -60  0
61 -19 -60  0
61 -24 -59  0
61 -21 -60  0
61 -20 -55  0
61 -20 -59  0
61 -23 -55  0
61 -39 -49  0
61 -39 -52  0
61 -42 -54  0
61 -38 -53  0
61 -37 -51  0
61 -40 -51  0
61 -41 -49  0
61 -42 -50  0
61 -37 -50  0
61 -49 -60  0
61 -54 -59  0
61 -54 -57  0
61 -50 -56  0
61 -51 -55  0
61 -53 -58  0
61 -51 -56  0
61 -29 -33  0
61 -26 -33  0
61 -27 -34  0
61 -26 -36  0
61 -26 -35  0
61 -27 -31  0
61 -28 -32  0
61 -25 -31  0
61 -29 -31  0
